data/benchmarks/bayes/75-10-4-q.cnf
p cnf 460 447
c weights 0.668362 0.331638 1 1 1 1 1 1 1 1 1 1 1 1 1 1 1 1 1 1 1 1 1 1 1 1 1 1 1 1 1 1 1 1 1 1 1 1 1 1 1 1 1 1 1 1 1 1 1 1 1 1 1 1 1 1 1 1 1 1 1 1 1 1 1 1 1 1 1 1 1 1 1 1 1 1 1 1 1 1 1 1 1 1 1 1 1 1 1 1 1 1 1 1 1 1 1 1 1 1 1 1 1 1 1 1 1 1 1 1 1 1 1 1 1 1 1 1 1 1 1 1 1 1 1 1 1 1 1 1 1 1 1 1 1 1 1 1 1 1 1 1 1 1 1 1 1 1 1 1 1 1 1 1 1 1 1 1 1 1 1 1 1 1 1 1 1 1 1 1 1 1 1 1 1 1 1 1 1 1 1 1 1 1 1 1 1 1 1 1 1 1 1 1 1 1 1 1 1 1 0.5 0.5 0.5 0.5 0.873876 0.126124 0.0740459 0.9259541 0.5 0.5 0.5 0.5 0.5 0.5 0.5 0.5 0.84618 0.15381999999999996 0.308601 0.691399 0.5 0.5 0.5 0.5 0.5 0.5 0.5 0.5 0.5 0.5 0.5 0.5 0.948132 0.051868000000000025 0.0888804 0.9111196 0.5 0.5 0.5 0.5 0.5 0.5 0.5 0.5 0.5 0.5 0.5 0.5 0.5 0.5 0.5 0.5 0.5 0.5 0.5 0.5 0.5 0.5 0.5 0.5 0.5 0.5 0.5 0.5 0.5 0.5 0.5 0.5 0.5 0.5 0.5 0.5 0.5 0.5 0.5 0.5 0.5 0.5 0.5 0.5 0.5 0.5 0.5 0.5 0.5 0.5 0.5 0.5 0.5 0.5 0.5 0.5 0.5 0.5 0.5 0.5 0.5 0.5 0.5 0.5 0.5 0.5 0.5 0.5 0.5 0.5 0.5 0.5 0.5 0.5 0.5 0.5 0.5 0.5 0.5 0.5 0.257136 0.742864 0.746989 0.253011 0.961352 0.038648000000000016 0.374154 0.625846 0.5 0.5 0.5 0.5 0.5 0.5 0.5 0.5 0.5 0.5 0.5 0.5 0.5 0.5 0.5 0.5 0.5 0.5 0.5 0.5 0.5 0.5 0.5 0.5 0.900178 0.09982199999999997 0.114928 0.885072 0.424639 0.575361 0.253509 0.746491 0.5 0.5 0.5 0.5 0.5 0.5 0.5 0.5 0.5 0.5 0.5 0.5 0.5 0.5 0.5 0.5 0.5 0.5 0.5 0.5 0.5 0.5 0.5 0.5 0.924781 0.07521900000000004 0.652506 0.34749399999999997 0.0154444 0.9845556 0.423404 0.576596 0.226014 0.7739860000000001 0.935384 0.064616 0.5 0.5 0.5 0.5 0.5 0.5 0.5 0.5 0.5 0.5 0.5 0.5 0.5 0.5 0.5 0.5 0.5 0.5 0.5 0.5 0.5 0.5 0.5 0.5 0.5 0.5 0.5 0.5 0.5 0.5 0.5 0.5 0.331029 0.668971 0.986358 0.013642000000000043 0.720457 0.279543 0.983535 0.016464999999999952 0.5 0.5 0.5 0.5 0.5 0.5 0.5 0.5 0.364376 0.635624 0.79065 0.20935000000000004 0.933571 0.06642899999999996 0.401115 0.598885 0.5 0.5 0.5 0.5 0.5 0.5 0.5 0.5 0.5 0.5 0.5 0.5 0.5 0.5 0.5 0.5 0.421256 0.5787439999999999 0.616191 0.38380899999999996 0.788812 0.21118800000000004 0.60836 0.39164 0.579872 0.42012799999999995 0.119841 0.880159 0.5 0.5 0.5 0.5 0.5 0.5 0.5 0.5 0.824335 0.17566499999999996 0.523432 0.476568 0.816595 0.18340500000000004 0.188711 0.811289 0.5 0.5 0.5 0.5 0.5 0.5 0.5 0.5 0.5 0.5 0.5 0.5 0.5 0.5 0.5 0.5 0.5 0.5 0.5 0.5 0.5 0.5 0.5 0.5 0.5 0.5 0.5 0.5 0.5 0.5 0.5 0.5 0.5 0.5 0.5 0.5 0.5 0.5 0.5 0.5 0.795583 0.20441699999999996 0.975634 0.024366 0.780322 0.21967800000000004 0.984295 0.01570499999999997 0.5 0.5 0.5 0.5 0.5 0.5 0.5 0.5 0.5 0.5 0.5 0.5 0.630996 0.369004 0.149363 0.850637 0.317498 0.6825019999999999 0.228816 0.771184 0.5 0.5 0.5 0.5 0.5 0.5 0.5 0.5 0.5 0.5 0.5 0.5 0.5 0.5 0.5 0.5 0.5 0.5 0.5 0.5 0.5 0.5 0.5 0.5 0.932463 0.06753699999999996 0.758666 0.24133400000000005 0.782341 0.21765900000000005 0.22218 0.77782 0.5 0.5 0.5 0.5 0.5 0.5 0.5 0.5 0.5 0.5 0.5 0.5 0.5 0.5 0.5 0.5 0.5 0.5 0.5 0.5 0.5 0.5 0.5 0.5 0.5 0.5 0.5 0.5 0.0613664 0.9386336 0.358768 0.641232 0.0312093 0.9687907 0.565994 0.434006 0.5 0.5 0.5 0.5 0.5 0.5 0.5 0.5 0.5 0.5 0.5 0.5 0.5 0.5 0.5 0.5 0.5 0.5 0.5 0.5 0.5 0.5 0.5 0.5 0.5 0.5 0.5 0.5 0.5 0.5 0.5 0.5 0.5 0.5 0.5 0.5 0.5 0.5 0.5 0.5 0.5 0.5 0.5 0.5 0.5 0.5 0.5 0.5 0.5 0.5 0.5 0.5 0.5 0.5 0.5 0.5 0.816673 0.18332700000000002 0.912595 0.08740499999999995 0.385198 0.6148020000000001 0.787194 0.21280600000000005 0.5 0.5 0.5 0.5 0.766294 0.23370599999999997 0.936733 0.06326699999999996 0.99454 0.00546000000000002 0.261774 0.738226 0.5 0.5 0.5 0.5 0.5 0.5 0.5 0.5 0.5 0.5 0.5 0.5 0.5 0.5 0.5 0.5 0.5 0.5 0.5 0.5 0.5 0.5 0.5 0.5 0.747054 0.252946 0.8834 0.11660000000000004 0.833217 0.16678300000000001 0.563727 0.436273 0.218415 0.781585 0.350921 0.649079 0.829017 0.170983 0.980775 0.019225000000000048 0.5 0.5 0.5 0.5 0.5 0.5 0.5 0.5 0.5 0.5 0.5 0.5 0.5 0.5 0.5 0.5 0.5 0.5 0.5 0.5 0.5 0.5 0.5 0.5 0.5 0.5 0.5 0.5 0.5 0.5 0.5 0.5 0.5 0.5 0.5 0.5 0.5 0.5 0.5 0.5 0.5 0.5 0.5 0.5 0.513155 0.48684499999999997 0.148089 0.851911 0.586264 0.413736 0.430663 0.569337 0.5 0.5 0.5 0.5 0.5 0.5 0.5 0.5 0.5 0.5 0.5 0.5 0.5 0.5 0.5 0.5 0.5 0.5 0.5 0.5 0.5 0.5 0.5 0.5 0.5 0.5 0.5 0.5 0.5 0.5 0.5 0.5 0.5 0.5 0.5 0.5 0.5 0.5 0.5 0.5 0.5 0.5 0.5 0.5 0.5 0.5 0.5 0.5 0.5 0.5 0.5 0.5 0.5 0.5 0.5 0.5 0.5 0.5 0.5 0.5 0.504086 0.49591399999999997 0.846893 0.153107 0.439072 0.560928 0.832392 0.16760799999999998 0.5 0.5 0.5 0.5 0.5 0.5 0.5 0.5 0.5 0.5 0.5 0.5 0.5 0.5 0.5 0.5 0.5 0.5 0.5 0.5 0.5 0.5 0.5 0.5 0.5 0.5 0.5 0.5 0.5 0.5 0.5 0.5 0.0818057 0.9181943 0.660707 0.33929299999999996 0.650118 0.349882 0.223426 0.776574 0.5 0.5 0.5 0.5 0.5 0.5 0.5 0.5 0.588876 0.41112400000000004 0.554871 0.445129 0.653331 0.346669 0.605805 0.39419499999999996
-1 -2 0
1 2 0
-2 -103 3 0
-2 103 -3 0
2 -104 3 0
2 104 -3 0
-3 -4 0
3 4 0
-4 -5 0
4 5 0
-5 -109 6 0
-5 109 -6 0
5 -110 6 0
5 110 -6 0
-6 7 0
6 -7 0
-7 8 0
7 -8 0
-8 9 0
8 -9 0
-9 -117 10 0
-9 117 -10 0
9 -118 10 0
9 118 -10 0
-1 11 0
1 -11 0
-11 -2 12 0
-11 2 12 0
11 -2 12 0
11 2 -12 0
-12 -3 13 0
-12 3 13 0
12 -3 13 0
12 3 -13 0
-13 -4 14 0
-13 4 14 0
13 -4 -14 0
13 4 -14 0
-14 -5 15 0
-14 5 15 0
14 -5 -15 0
14 5 -15 0
-15 -6 16 0
-15 6 16 0
15 -6 -16 0
15 6 16 0
-16 -7 -17 0
-16 7 17 0
16 -7 -17 0
16 7 17 0
-17 -8 18 0
-17 8 -18 0
17 -8 18 0
17 8 18 0
-18 -9 19 0
-18 9 -19 0
18 -9 -19 0
18 9 -19 0
-19 -10 20 0
-19 10 20 0
19 -10 -20 0
19 10 20 0
-11 21 0
11 -21 0
-21 -12 -159 22 0
-21 -12 159 -22 0
-21 12 -160 22 0
-21 12 160 -22 0
21 -12 -161 22 0
21 -12 161 -22 0
21 12 -162 22 0
21 12 162 -22 0
-22 -13 -23 0
-22 13 23 0
22 -13 -23 0
22 13 -23 0
-23 -14 -24 0
-23 14 24 0
23 -14 -24 0
23 14 24 0
-24 -15 25 0
-24 15 -25 0
24 -15 25 0
24 15 25 0
-25 -16 -175 26 0
-25 -16 175 -26 0
-25 16 -176 26 0
-25 16 176 -26 0
25 -16 -177 26 0
25 -16 177 -26 0
25 16 -178 26 0
25 16 178 -26 0
-26 -17 -27 0
-26 17 27 0
26 -17 -27 0
26 17 -27 0
-27 -18 -28 0
-27 18 -28 0
27 -18 28 0
27 18 28 0
-28 -19 -29 0
-28 19 29 0
28 -19 29 0
28 19 29 0
-29 -20 -191 30 0
-29 -20 191 -30 0
-29 20 -192 30 0
-29 20 192 -30 0
29 -20 -193 30 0
29 -20 193 -30 0
29 20 -194 30 0
29 20 194 -30 0
-21 -195 31 0
-21 195 -31 0
21 -196 31 0
21 196 -31 0
-31 -22 -32 0
-31 22 -32 0
31 -22 32 0
31 22 -32 0
-32 -23 33 0
-32 23 33 0
32 -23 -33 0
32 23 33 0
-33 -24 34 0
-33 24 -34 0
33 -24 34 0
33 24 34 0
-34 -25 -35 0
-34 25 35 0
34 -25 35 0
34 25 35 0
-35 -26 -213 36 0
-35 -26 213 -36 0
-35 26 -214 36 0
-35 26 214 -36 0
35 -26 -215 36 0
35 -26 215 -36 0
35 26 -216 36 0
35 26 216 -36 0
-36 -27 -37 0
-36 27 37 0
36 -27 -37 0
36 27 37 0
-37 -28 -221 38 0
-37 -28 221 -38 0
-37 28 -222 38 0
-37 28 222 -38 0
37 -28 -223 38 0
37 -28 223 -38 0
37 28 -224 38 0
37 28 224 -38 0
-38 -29 39 0
-38 29 -39 0
38 -29 -39 0
38 29 39 0
-39 -30 -40 0
-39 30 -40 0
39 -30 40 0
39 30 40 0
-31 -233 41 0
-31 233 -41 0
31 -234 41 0
31 234 -41 0
-41 -32 -235 42 0
-41 -32 235 -42 0
-41 32 -236 42 0
-41 32 236 -42 0
41 -32 -237 42 0
41 -32 237 -42 0
41 32 -238 42 0
41 32 238 -42 0
-42 -33 43 0
-42 33 -43 0
42 -33 -43 0
42 33 43 0
-43 -34 -243 44 0
-43 -34 243 -44 0
-43 34 -244 44 0
-43 34 244 -44 0
43 -34 -245 44 0
43 -34 245 -44 0
43 34 -246 44 0
43 34 246 -44 0
-44 -35 -45 0
-44 35 45 0
44 -35 45 0
44 35 45 0
-45 -36 46 0
-45 36 46 0
45 -36 -46 0
45 36 46 0
-46 -37 47 0
-46 37 -47 0
46 -37 47 0
46 37 47 0
-47 -38 48 0
-47 38 -48 0
47 -38 48 0
47 38 48 0
-48 -39 -49 0
-48 39 49 0
48 -39 49 0
48 39 49 0
-49 -40 -267 50 0
-49 -40 267 -50 0
-49 40 -268 50 0
-49 40 268 -50 0
49 -40 -269 50 0
49 -40 269 -50 0
49 40 -270 50 0
49 40 270 -50 0
-41 -51 0
41 51 0
-51 -42 -52 0
-51 42 52 0
51 -42 52 0
51 42 52 0
-52 -43 -277 53 0
-52 -43 277 -53 0
-52 43 -278 53 0
-52 43 278 -53 0
52 -43 -279 53 0
52 -43 279 -53 0
52 43 -280 53 0
52 43 280 -53 0
-53 -44 54 0
-53 44 54 0
53 -44 54 0
53 44 -54 0
-54 -45 55 0
-54 45 55 0
54 -45 55 0
54 45 -55 0
-55 -46 -56 0
-55 46 56 0
55 -46 56 0
55 46 -56 0
-56 -47 -293 57 0
-56 -47 293 -57 0
-56 47 -294 57 0
-56 47 294 -57 0
56 -47 -295 57 0
56 -47 295 -57 0
56 47 -296 57 0
56 47 296 -57 0
-57 -48 58 0
-57 48 -58 0
57 -48 58 0
57 48 -58 0
-58 -49 59 0
-58 49 -59 0
58 -49 -59 0
58 49 59 0
-59 -50 -60 0
-59 50 60 0
59 -50 60 0
59 50 60 0
-51 61 0
51 -61 0
-61 -52 -311 62 0
-61 -52 311 -62 0
-61 52 -312 62 0
-61 52 312 -62 0
61 -52 -313 62 0
61 -52 313 -62 0
61 52 -314 62 0
61 52 314 -62 0
-62 -53 -63 0
-62 53 -63 0
62 -53 -63 0
62 53 63 0
-63 -54 64 0
-63 54 64 0
63 -54 64 0
63 54 -64 0
-64 -55 -65 0
-64 55 65 0
64 -55 -65 0
64 55 65 0
-65 -56 66 0
-65 56 66 0
65 -56 -66 0
65 56 66 0
-66 -57 67 0
-66 57 67 0
66 -57 67 0
66 57 -67 0
-67 -58 68 0
-67 58 68 0
67 -58 -68 0
67 58 68 0
-68 -59 -69 0
-68 59 69 0
68 -59 69 0
68 59 69 0
-69 -60 -343 70 0
-69 -60 343 -70 0
-69 60 -344 70 0
-69 60 344 -70 0
69 -60 -345 70 0
69 -60 345 -70 0
69 60 -346 70 0
69 60 346 -70 0
-61 -71 0
61 71 0
-71 -62 -349 72 0
-71 -62 349 -72 0
-71 62 -350 72 0
-71 62 350 -72 0
71 -62 -351 72 0
71 -62 351 -72 0
71 62 -352 72 0
71 62 352 -72 0
-72 -63 73 0
-72 63 -73 0
72 -63 -73 0
72 63 -73 0
-73 -64 74 0
-73 64 74 0
73 -64 74 0
73 64 -74 0
-74 -65 75 0
-74 65 -75 0
74 -65 75 0
74 65 75 0
-75 -66 -365 76 0
-75 -66 365 -76 0
-75 66 -366 76 0
-75 66 366 -76 0
75 -66 -367 76 0
75 -66 367 -76 0
75 66 -368 76 0
75 66 368 -76 0
-76 -67 -369 77 0
-76 -67 369 -77 0
-76 67 -370 77 0
-76 67 370 -77 0
76 -67 -371 77 0
76 -67 371 -77 0
76 67 -372 77 0
76 67 372 -77 0
-77 -68 -78 0
-77 68 -78 0
77 -68 78 0
77 68 78 0
-78 -69 79 0
-78 69 79 0
78 -69 -79 0
78 69 79 0
-79 -70 -80 0
-79 70 80 0
79 -70 -80 0
79 70 80 0
-71 81 0
71 -81 0
-81 -72 82 0
-81 72 -82 0
81 -72 -82 0
81 72 -82 0
-82 -73 -83 0
-82 73 -83 0
82 -73 -83 0
82 73 83 0
-83 -74 -395 84 0
-83 -74 395 -84 0
-83 74 -396 84 0
-83 74 396 -84 0
83 -74 -397 84 0
83 -74 397 -84 0
83 74 -398 84 0
83 74 398 -84 0
-84 -75 -85 0
-84 75 -85 0
84 -75 85 0
84 75 85 0
-85 -76 -86 0
-85 76 86 0
85 -76 86 0
85 76 -86 0
-86 -77 87 0
-86 77 -87 0
86 -77 87 0
86 77 -87 0
-87 -78 88 0
-87 78 -88 0
87 -78 -88 0
87 78 -88 0
-88 -79 89 0
-88 79 -89 0
88 -79 -89 0
88 79 89 0
-89 -80 90 0
-89 80 -90 0
89 -80 90 0
89 80 -90 0
-81 91 0
81 -91 0
-91 -82 -92 0
-91 82 -92 0
91 -82 92 0
91 82 -92 0
-92 -83 -429 93 0
-92 -83 429 -93 0
-92 83 -430 93 0
-92 83 430 -93 0
92 -83 -431 93 0
92 -83 431 -93 0
92 83 -432 93 0
92 83 432 -93 0
-93 -84 -94 0
-93 84 -94 0
93 -84 94 0
93 84 94 0
-94 -85 95 0
-94 85 95 0
94 -85 -95 0
94 85 -95 0
-95 -86 -96 0
-95 86 96 0
95 -86 -96 0
95 86 96 0
-96 -87 -97 0
-96 87 97 0
96 -87 -97 0
96 87 97 0
-97 -88 -449 98 0
-97 -88 449 -98 0
-97 88 -450 98 0
-97 88 450 -98 0
97 -88 -451 98 0
97 -88 451 -98 0
97 88 -452 98 0
97 88 452 -98 0
-98 -89 99 0
-98 89 99 0
98 -89 99 0
98 89 -99 0
-99 -90 -457 100 0
-99 -90 457 -100 0
-99 90 -458 100 0
-99 90 458 -100 0
99 -90 -459 100 0
99 -90 459 -100 0
99 90 -460 100 0
99 90 460 -100 0
100 0
