data/benchmarks/bayes/75-10-4-q.gr
p tw 460 509
29 194
7 17
67 68
49 270
99 100
67 77
83 430
84 395
8 9
25 178
8 18
40 50
76 372
41 42
52 280
73 74
41 51
25 34
73 83
97 449
14 15
14 24
74 75
74 84
100 460
56 295
28 224
15 16
83 398
47 48
15 25
47 57
59 68
42 235
48 49
93 429
48 58
76 367
80 90
31 234
69 346
81 82
35 213
33 42
81 91
34 245
22 23
84 93
22 32
38 224
62 352
21 162
66 75
55 56
7 16
55 65
49 269
58 67
25 177
40 49
22 162
76 371
52 279
62 311
73 82
32 41
14 23
100 459
65 74
83 397
47 56
47 294
6 15
21 22
21 31
76 366
80 89
39 48
54 55
69 345
54 64
34 244
38 223
87 88
92 432
87 97
21 161
28 29
28 38
3 103
88 89
88 98
20 192
29 30
40 268
41 233
61 62
93 432
61 71
76 370
2 3
16 176
2 12
62 63
94 95
99 457
3 4
35 36
26 216
35 45
95 96
75 365
100 458
72 350
36 37
68 69
68 78
47 293
74 396
31 196
69 70
41 237
69 79
61 313
37 221
54 63
13 22
34 243
62 314
60 344
88 452
43 44
43 53
38 222
92 431
87 96
46 55
76 77
12 160
28 37
76 86
20 191
79 88
40 267
67 370
20 29
44 246
16 175
71 349
2 11
53 62
43 277
26 215
35 44
10 118
9 10
30 194
72 349
86 95
9 19
68 77
27 36
74 395
42 43
42 52
41 236
61 312
60 69
75 76
75 85
88 451
16 17
60 343
16 26
92 430
90 460
49 50
49 59
12 159
66 368
82 83
5 110
67 369
82 92
9 117
23 24
23 33
83 84
26 178
24 25
56 57
98 450
56 66
2 104
30 193
57 58
57 296
89 90
89 99
30 40
31 32
32 235
71 352
43 244
52 311
36 214
34 43
64 65
29 193
90 459
5 6
67 76
83 429
97 98
66 367
8 17
50 270
70 346
5 109
82 91
77 372
6 110
26 177
53 280
74 83
56 294
28 223
98 449
56 65
15 24
57 295
84 398
89 98
48 57
31 233
63 64
63 73
4 5
4 14
43 243
97 452
22 31
36 213
62 351
37 38
37 47
29 192
55 64
90 458
49 268
42 238
70 80
66 366
25 176
29 39
11 12
50 269
22 161
11 21
70 345
52 278
62 72
35 216
44 45
77 371
44 54
32 238
3 13
52 314
53 279
56 293
28 222
83 396
36 46
96 97
18 19
18 28
83 432
84 397
76 365
10 20
69 344
97 451
62 350
21 160
85 86
29 191
49 267
21 196
88 97
42 237
77 78
25 175
29 38
77 87
93 431
22 160
76 369
52 277
62 71
35 215
77 370
51 52
3 12
51 61
53 278
100 457
83 395
36 45
31 195
69 78
10 19
69 343
25 26
62 313
25 35
99 460
43 52
38 221
21 159
75 368
17 18
17 27
76 85
47 296
42 236
50 60
77 86
93 430
76 368
44 245
83 93
37 224
34 246
24 34
84 85
26 214
84 94
10 117
9 18
57 67
20 194
58 59
58 68
42 51
40 270
41 235
90 100
61 311
16 178
31 41
91 92
75 84
62 312
88 450
32 33
99 459
32 42
16 25
43 280
64 74
92 429
75 367
5 15
65 66
17 26
72 352
65 75
49 58
6 7
47 295
6 16
74 398
98 99
50 59
39 40
44 244
39 49
23 32
83 92
37 223
72 73
60 346
24 33
72 82
26 213
2 103
30 192
57 66
12 162
3 104
20 193
30 39
40 269
41 234
67 372
90 99
16 177
71 351
88 449
99 458
43 279
64 73
75 366
38 39
5 14
38 48
72 351
74 397
71 72
71 81
41 238
12 13
12 22
44 243
61 314
6 109
26 176
37 222
13 14
45 46
13 23
45 55
60 345
72 81
46 47
78 79
30 191
46 56
57 294
78 88
12 161
19 20
19 29
79 80
79 89
63 72
67 371
52 53
20 30
4 13
52 62
71 350
53 54
53 63
37 46
85 95
43 278
98 452
26 27
90 457
26 36
86 87
38 47
86 96
70 79
66 365
27 28
50 268
27 37
70 344
12 21
60 70
44 53
32 237
43 246
1 2
26 175
52 313
1 11
36 216
93 94
45 54
28 221
18 27
57 293
78 87
84 396
83 431
19 28
9 118
52 61
97 450
62 349
85 94
56 296
98 451
21 195
59 60
26 35
59 69
50 267
22 159
92 93
70 343
33 34
35 214
33 43
77 369
32 236
43 245
52 312
53 277
34 35
66 67
36 215
34 44
66 76
7 8
